prueba2.txt
25
24
1 1 3
2 1 6
3 1 9
4 1 12
5 1 15
6 1 18
7 1 21
8 1 24
9 12 3
10 12 6
11 12 9
12 12 12
13 12 15
14 12 18
15 12 21
16 12 24
17 23 3
18 23 6
19 23 9
20 23 12
21 23 15
22 23 18
23 23 21
24 23 24
